NAME: rand30
COMMENT: Random 30-city instance (seed=72)
TYPE: TSP
DIMENSION: 30
EDGE_WEIGHT_TYPE: EUC_2D
NODE_COORD_SECTION
1 73.4267 594.3619
2 989.4470 343.9842
3 543.9743 374.3404
4 739.6025 685.4638
5 598.7275 976.0814
6 702.9156 342.8296
7 379.9489 633.6380
8 692.0159 221.9963
9 809.0248 447.0213
10 772.4015 91.0725
11 317.5986 17.7894
12 416.9412 254.0187
13 346.9130 220.6320
14 851.6603 635.2025
15 349.7935 497.4526
16 184.7586 942.2932
17 905.4478 571.3646
18 153.3938 953.1255
19 216.6556 54.9567
20 418.4843 377.3949
21 850.1847 146.5353
22 60.9427 441.5128
23 41.3795 662.9603
24 487.9687 874.1794
25 935.3578 234.2556
26 786.9154 499.4160
27 950.4504 79.4320
28 456.4757 980.3002
29 55.8556 304.4750
30 309.6619 361.8444
EOF
